(set-logic QF_UF)
(declare-fun A0 () Bool)
(declare-fun A1 () Bool)
(declare-fun A2 () Bool)
(declare-fun A3 () Bool)
(declare-fun A4 () Bool)
(declare-fun A5 () Bool)
(declare-fun A6 () Bool)
(declare-fun A7 () Bool)
(declare-fun A8 () Bool)
(declare-fun A9 () Bool)
(declare-fun A10 () Bool)
(declare-fun A12 () Bool)
(declare-fun A13 () Bool)
(declare-fun A14 () Bool)
(declare-fun A15 () Bool)
(declare-fun A16 () Bool)
(declare-fun A17 () Bool)
(declare-fun A18 () Bool)
(declare-fun A19 () Bool)
(declare-fun A20 () Bool)
(declare-fun A21 () Bool)
(declare-fun A22 () Bool)
(declare-fun A23 () Bool)
(declare-fun A24 () Bool)
(declare-fun A26 () Bool)
(declare-fun A27 () Bool)
(declare-fun A28 () Bool)
(declare-fun A29 () Bool)
(assert (let ((.def_0 (not A0))) (let ((.def_1 (or .def_0 A9))) (let ((.def_2 (not .def_1))) (let ((.def_3 (= A23 A5))) (let ((.def_4 (and .def_3 .def_2))) (let ((.def_5 (not .def_4))) (let ((.def_6 (or A5 A14))) (let ((.def_7 (not A5))) (let ((.def_8 (or A18 .def_7))) (let ((.def_9 (and .def_8 .def_6))) (let ((.def_10 (not .def_9))) (let ((.def_11 (and .def_10 .def_5))) (let ((.def_12 (not .def_11))) (let ((.def_13 (or A18 A7))) (let ((.def_14 (not A19))) (let ((.def_15 (not A9))) (let ((.def_16 (= .def_15 .def_14))) (let ((.def_17 (not .def_16))) (let ((.def_18 (or .def_17 .def_13))) (let ((.def_19 (not .def_18))) (let ((.def_20 (not A14))) (let ((.def_21 (or .def_20 A14))) (let ((.def_22 (not .def_21))) (let ((.def_23 (not A27))) (let ((.def_24 (not A15))) (let ((.def_25 (or .def_24 .def_23))) (let ((.def_26 (not .def_25))) (let ((.def_27 (or .def_26 .def_22))) (let ((.def_28 (not .def_27))) (let ((.def_29 (= .def_28 .def_19))) (let ((.def_30 (or .def_29 .def_12))) (let ((.def_31 (or A12 A12))) (let ((.def_32 (not A6))) (let ((.def_33 (and .def_32 A1))) (let ((.def_34 (not .def_33))) (let ((.def_35 (or .def_34 .def_31))) (let ((.def_36 (not .def_35))) (let ((.def_37 (or A2 .def_32))) (let ((.def_38 (not .def_37))) (let ((.def_39 (or A22 A5))) (let ((.def_40 (not .def_39))) (let ((.def_41 (or .def_40 .def_38))) (let ((.def_42 (not .def_41))) (let ((.def_43 (and .def_42 .def_36))) (let ((.def_44 (not .def_43))) (let ((.def_45 (or .def_20 .def_14))) (let ((.def_46 (not .def_45))) (let ((.def_47 (not A2))) (let ((.def_48 (or .def_47 .def_15))) (let ((.def_49 (and .def_48 .def_46))) (let ((.def_50 (not .def_49))) (let ((.def_51 (not A12))) (let ((.def_52 (and .def_51 A1))) (let ((.def_53 (or A10 A21))) (let ((.def_54 (and .def_53 .def_52))) (let ((.def_55 (or .def_54 .def_50))) (let ((.def_56 (not .def_55))) (let ((.def_57 (or .def_56 .def_44))) (let ((.def_58 (and .def_57 .def_30))) (let ((.def_59 (not .def_58))) (let ((.def_60 (and .def_32 .def_32))) (let ((.def_61 (not .def_60))) (let ((.def_62 (not A21))) (let ((.def_63 (and .def_62 A17))) (let ((.def_64 (or .def_63 .def_61))) (let ((.def_65 (not .def_64))) (let ((.def_66 (or A24 A13))) (let ((.def_67 (and A12 A4))) (let ((.def_68 (and .def_67 .def_66))) (let ((.def_69 (or .def_68 .def_65))) (let ((.def_70 (not .def_69))) (let ((.def_71 (not A26))) (let ((.def_72 (and A20 .def_71))) (let ((.def_73 (= A10 .def_15))) (let ((.def_74 (not .def_73))) (let ((.def_75 (or .def_74 .def_72))) (let ((.def_76 (not .def_75))) (let ((.def_77 (not A29))) (let ((.def_78 (or A27 .def_77))) (let ((.def_79 (not .def_78))) (let ((.def_80 (and A19 A7))) (let ((.def_81 (and .def_80 .def_79))) (let ((.def_82 (not .def_81))) (let ((.def_83 (or .def_82 .def_76))) (let ((.def_84 (not .def_83))) (let ((.def_85 (or .def_84 .def_70))) (let ((.def_86 (not .def_85))) (let ((.def_87 (and .def_20 A1))) (let ((.def_88 (not A22))) (let ((.def_89 (and A24 .def_88))) (let ((.def_90 (not .def_89))) (let ((.def_91 (or .def_90 .def_87))) (let ((.def_92 (not .def_91))) (let ((.def_93 (not A28))) (let ((.def_94 (or .def_14 .def_93))) (let ((.def_95 (not .def_94))) (let ((.def_96 (not A4))) (let ((.def_97 (not A17))) (let ((.def_98 (= .def_97 .def_96))) (let ((.def_99 (or .def_98 .def_95))) (let ((.def_100 (not .def_99))) (let ((.def_101 (or .def_100 .def_92))) (let ((.def_102 (not .def_101))) (let ((.def_103 (not A16))) (let ((.def_104 (and .def_103 A8))) (let ((.def_105 (not .def_104))) (let ((.def_106 (not A1))) (let ((.def_107 (and .def_106 .def_23))) (let ((.def_108 (not .def_107))) (let ((.def_109 (or .def_108 .def_105))) (let ((.def_110 (not .def_109))) (let ((.def_111 (and A12 A3))) (let ((.def_112 (not .def_111))) (let ((.def_113 (or A16 A12))) (let ((.def_114 (= .def_113 .def_112))) (let ((.def_115 (not .def_114))) (let ((.def_116 (and .def_115 .def_110))) (let ((.def_117 (not .def_116))) (let ((.def_118 (or .def_117 .def_102))) (let ((.def_119 (not .def_118))) (let ((.def_120 (and .def_119 .def_86))) (let ((.def_121 (not .def_120))) (let ((.def_122 (and .def_121 .def_59))) .def_122))))))))))))))))))))))))))))))))))))))))))))))))))))))))))))))))))))))))))))))))))))))))))))))))))))))))))))))))))))))))))))
(check-sat)
